c ind 104 105 114 115 129 131 133 135 137 139 0
c ind 141 143 146 151 17 185 19 191 193 195 0
c ind 197 208 21 214 218 23 232 234 236 238 0
c ind 240 242 244 246 25 254 259 27 29 31 0
c ind 37 38 40 42 44 58 60 62 64 66 0
c ind 68 7 70 72 8 93 94 98 99 0
p cnf 267 787
-1 2 0
-1 249 0
-10 11 0
-10 28 0
-100 93 0
-100 94 0
-101 -102 38 0
-101 -38 102 0
-102 -103 -106 0
-102 103 106 0
-103 -104 -105 0
-103 104 105 0
-106 107 110 0
-107 108 109 0
-108 98 0
-108 99 0
-109 100 0
-109 99 0
-11 12 0
-11 26 0
-110 100 0
-110 98 0
-111 -112 38 0
-111 -38 112 0
-112 -113 -116 0
-112 113 116 0
-113 -114 -115 0
-113 114 115 0
-116 117 120 0
-117 118 119 0
-118 104 0
-118 105 0
-119 105 0
-119 106 0
-12 13 0
-12 24 0
-120 104 0
-120 106 0
-121 122 0
-121 142 0
-122 123 0
-122 140 0
-123 124 0
-123 138 0
-124 125 0
-124 136 0
-125 126 0
-125 134 0
-126 127 0
-126 132 0
-127 128 0
-127 130 0
-128 -129 17 0
-128 -17 129 0
-13 14 0
-13 22 0
-130 -131 19 0
-130 -19 131 0
-132 -133 21 0
-132 -21 133 0
-134 -135 23 0
-134 -23 135 0
-136 -137 25 0
-136 -25 137 0
-138 -139 27 0
-138 -27 139 0
-14 15 0
-14 20 0
-140 -141 29 0
-140 -29 141 0
-142 -143 31 0
-142 -31 143 0
-144 -6 145 0
-144 6 147 0
-145 -146 8 0
-145 -8 146 0
-147 -33 145 0
-147 33 148 0
-148 -46 145 0
-148 46 149 0
-149 -74 150 0
-149 74 152 0
-15 16 0
-15 18 0
-150 -146 151 0
-150 -151 146 0
-152 -79 150 0
-152 79 153 0
-153 -83 150 0
-153 83 154 0
-154 -155 150 0
-154 155 157 0
-155 156 0
-155 43 0
-156 48 0
-156 85 0
-157 -158 150 0
-157 158 160 0
-158 159 0
-158 43 0
-159 76 0
-159 85 0
-16 -17 8 0
-16 -8 17 0
-160 -161 150 0
-160 161 163 0
-161 162 0
-161 34 0
-162 -44 8 0
-162 -8 44 0
-163 -164 150 0
-163 164 166 0
-164 165 0
-164 43 0
-165 81 0
-165 85 0
-166 -167 150 0
-166 167 168 0
-167 162 0
-167 47 0
-168 -169 170 0
-168 169 175 0
-169 162 0
-169 75 0
-170 171 0
-170 174 0
-171 172 0
-171 174 0
-172 173 0
-172 174 0
-173 -146 38 0
-173 -38 146 0
-174 -38 38 0
-175 -176 177 0
-175 176 150 0
-176 162 0
-176 80 0
-177 -178 145 0
-177 178 150 0
-178 111 0
-178 179 0
-179 101 0
-179 180 0
-18 -19 8 0
-18 -8 19 0
-180 181 0
-180 182 0
-181 -8 91 0
-181 -91 8 0
-182 -8 96 0
-182 -96 8 0
-183 -6 184 0
-183 6 186 0
-184 -185 8 0
-184 -8 185 0
-186 -187 184 0
-186 187 198 0
-187 188 0
-187 196 0
-188 189 0
-188 194 0
-189 190 0
-189 192 0
-190 -191 38 0
-190 -38 191 0
-192 -193 38 0
-192 -38 193 0
-194 -195 38 0
-194 -38 195 0
-196 -197 38 0
-196 -38 197 0
-198 -199 203 0
-198 199 207 0
-199 196 0
-199 200 0
-2 209 0
-2 3 0
-20 -21 8 0
-20 -8 21 0
-200 194 0
-200 201 0
-201 192 0
-201 202 0
-202 -191 8 0
-202 -8 191 0
-203 174 0
-203 204 0
-204 174 0
-204 205 0
-205 174 0
-205 206 0
-206 -185 38 0
-206 -38 185 0
-207 -185 208 0
-207 -208 185 0
-209 -6 210 0
-209 6 215 0
-210 174 0
-210 211 0
-211 174 0
-211 212 0
-212 174 0
-212 213 0
-213 -214 38 0
-213 -38 214 0
-215 -33 210 0
-215 33 216 0
-216 -46 217 0
-216 46 219 0
-217 -214 218 0
-217 -218 214 0
-219 -74 217 0
-219 74 220 0
-22 -23 8 0
-22 -8 23 0
-220 -79 217 0
-220 79 221 0
-221 -83 217 0
-221 83 222 0
-222 -155 223 0
-222 155 248 0
-223 -224 247 0
-223 224 217 0
-224 225 0
-224 245 0
-225 226 0
-225 243 0
-226 227 0
-226 241 0
-227 228 0
-227 239 0
-228 229 0
-228 237 0
-229 230 0
-229 235 0
-230 231 0
-230 233 0
-231 -232 38 0
-231 -38 232 0
-233 -234 38 0
-233 -38 234 0
-235 -236 38 0
-235 -38 236 0
-237 -238 38 0
-237 -38 238 0
-239 -240 38 0
-239 -38 240 0
-24 -25 8 0
-24 -8 25 0
-241 -242 38 0
-241 -38 242 0
-243 -244 38 0
-243 -38 244 0
-245 -246 38 0
-245 -38 246 0
-247 -214 8 0
-247 -8 214 0
-248 -158 210 0
-248 158 217 0
-249 -6 250 0
-249 6 255 0
-250 174 0
-250 251 0
-251 174 0
-251 252 0
-252 174 0
-252 253 0
-253 -254 38 0
-253 -38 254 0
-255 -33 250 0
-255 33 256 0
-256 -46 250 0
-256 46 257 0
-257 -74 258 0
-257 74 260 0
-258 -254 259 0
-258 -259 254 0
-26 -27 8 0
-26 -8 27 0
-260 -79 258 0
-260 79 261 0
-261 -83 258 0
-261 83 262 0
-262 -155 258 0
-262 155 263 0
-263 -158 258 0
-263 158 264 0
-264 -161 265 0
-264 161 266 0
-265 -254 8 0
-265 -8 254 0
-266 -164 250 0
-266 164 267 0
-267 -167 250 0
-267 167 258 0
-28 -29 8 0
-28 -8 29 0
-3 183 0
-3 4 0
-30 -31 8 0
-30 -8 31 0
-32 -33 9 0
-32 33 45 0
-33 34 0
-33 43 0
-34 35 0
-34 41 0
-35 36 0
-35 39 0
-36 -37 38 0
-36 -38 37 0
-38 0
-39 -38 40 0
-39 -40 38 0
-4 144 0
-4 5 0
-41 -38 42 0
-41 -42 38 0
-43 -38 44 0
-43 -44 38 0
-45 -46 50 0
-45 46 73 0
-46 43 0
-46 47 0
-47 41 0
-47 48 0
-48 39 0
-48 49 0
-49 -37 8 0
-49 -8 37 0
-5 -6 9 0
-5 6 32 0
-50 51 0
-50 71 0
-51 52 0
-51 69 0
-52 53 0
-52 67 0
-53 54 0
-53 65 0
-54 55 0
-54 63 0
-55 56 0
-55 61 0
-56 57 0
-56 59 0
-57 -17 58 0
-57 -58 17 0
-59 -19 60 0
-59 -60 19 0
-6 -7 8 0
-6 -8 7 0
-61 -21 62 0
-61 -62 21 0
-63 -23 64 0
-63 -64 23 0
-65 -25 66 0
-65 -66 25 0
-67 -27 68 0
-67 -68 27 0
-69 -29 70 0
-69 -70 29 0
-71 -31 72 0
-71 -72 31 0
-73 -74 50 0
-73 74 78 0
-74 43 0
-74 75 0
-75 41 0
-75 76 0
-76 36 0
-76 77 0
-77 -40 8 0
-77 -8 40 0
-78 -79 50 0
-78 79 82 0
-79 43 0
-79 80 0
-80 41 0
-80 81 0
-81 49 0
-81 77 0
-82 -83 86 0
-82 83 50 0
-83 43 0
-83 84 0
-84 35 0
-84 85 0
-85 -42 8 0
-85 -8 42 0
-86 -87 121 0
-86 87 50 0
-87 111 0
-87 88 0
-88 101 0
-88 89 0
-89 90 0
-89 95 0
-9 10 0
-9 30 0
-90 -38 91 0
-90 -91 38 0
-91 -92 -38 0
-91 92 38 0
-92 -93 -94 0
-92 93 94 0
-95 -38 96 0
-95 -96 38 0
-96 -97 -100 0
-96 97 100 0
-97 -98 -99 0
-97 98 99 0
1 -2 -249 0
1 0
10 -11 -28 0
100 -93 -94 0
101 -102 -38 0
101 102 38 0
102 -103 106 0
102 -106 103 0
103 -104 105 0
103 -105 104 0
106 -107 0
106 -110 0
107 -108 0
107 -109 0
108 -98 -99 0
109 -99 -100 0
11 -12 -26 0
110 -98 -100 0
111 -112 -38 0
111 112 38 0
112 -113 116 0
112 -116 113 0
113 -114 115 0
113 -115 114 0
116 -117 0
116 -120 0
117 -118 0
117 -119 0
118 -104 -105 0
119 -105 -106 0
12 -13 -24 0
120 -104 -106 0
121 -122 -142 0
122 -123 -140 0
123 -124 -138 0
124 -125 -136 0
125 -126 -134 0
126 -127 -132 0
127 -128 -130 0
128 -17 -129 0
128 17 129 0
13 -14 -22 0
130 -19 -131 0
130 19 131 0
132 -21 -133 0
132 21 133 0
134 -23 -135 0
134 23 135 0
136 -25 -137 0
136 25 137 0
138 -27 -139 0
138 27 139 0
14 -15 -20 0
140 -29 -141 0
140 29 141 0
142 -31 -143 0
142 31 143 0
144 -145 -147 0
144 -6 -145 0
144 6 -147 0
145 -146 -8 0
145 146 8 0
147 -145 -148 0
147 -33 -145 0
147 33 -148 0
148 -145 -149 0
148 -46 -145 0
148 46 -149 0
149 -150 -152 0
149 -74 -150 0
149 74 -152 0
15 -16 -18 0
150 -146 -151 0
150 146 151 0
152 -150 -153 0
152 -79 -150 0
152 79 -153 0
153 -150 -154 0
153 -83 -150 0
153 83 -154 0
154 -150 -157 0
154 -155 -150 0
154 155 -157 0
155 -156 -43 0
156 -48 -85 0
157 -150 -160 0
157 -158 -150 0
157 158 -160 0
158 -159 -43 0
159 -76 -85 0
16 -17 -8 0
16 17 8 0
160 -150 -163 0
160 -161 -150 0
160 161 -163 0
161 -34 -162 0
162 -44 -8 0
162 44 8 0
163 -150 -166 0
163 -164 -150 0
163 164 -166 0
164 -165 -43 0
165 -81 -85 0
166 -150 -168 0
166 -167 -150 0
166 167 -168 0
167 -47 -162 0
168 -169 -170 0
168 -170 -175 0
168 169 -175 0
169 -75 -162 0
170 -171 -174 0
171 -172 -174 0
172 -173 -174 0
173 -146 -38 0
173 146 38 0
174 -38 -38 0
174 38 38 0
175 -176 -177 0
175 -177 -150 0
175 176 -150 0
176 -80 -162 0
177 -145 -150 0
177 -178 -145 0
177 178 -150 0
178 -179 -111 0
179 -180 -101 0
18 -19 -8 0
18 19 8 0
180 -181 -182 0
181 -91 -8 0
181 91 8 0
182 -96 -8 0
182 96 8 0
183 -184 -186 0
183 -6 -184 0
183 6 -186 0
184 -185 -8 0
184 185 8 0
186 -184 -198 0
186 -187 -184 0
186 187 -198 0
187 -188 -196 0
188 -189 -194 0
189 -190 -192 0
190 -191 -38 0
190 191 38 0
192 -193 -38 0
192 193 38 0
194 -195 -38 0
194 195 38 0
196 -197 -38 0
196 197 38 0
198 -199 -203 0
198 -203 -207 0
198 199 -207 0
199 -200 -196 0
2 -3 -209 0
20 -21 -8 0
20 21 8 0
200 -201 -194 0
201 -202 -192 0
202 -191 -8 0
202 191 8 0
203 -204 -174 0
204 -205 -174 0
205 -206 -174 0
206 -185 -38 0
206 185 38 0
207 -185 -208 0
207 185 208 0
209 -210 -215 0
209 -6 -210 0
209 6 -215 0
210 -211 -174 0
211 -212 -174 0
212 -213 -174 0
213 -214 -38 0
213 214 38 0
215 -210 -216 0
215 -33 -210 0
215 33 -216 0
216 -217 -219 0
216 -46 -217 0
216 46 -219 0
217 -214 -218 0
217 214 218 0
219 -217 -220 0
219 -74 -217 0
219 74 -220 0
22 -23 -8 0
22 23 8 0
220 -217 -221 0
220 -79 -217 0
220 79 -221 0
221 -217 -222 0
221 -83 -217 0
221 83 -222 0
222 -155 -223 0
222 -223 -248 0
222 155 -248 0
223 -224 -247 0
223 -247 -217 0
223 224 -217 0
224 -225 -245 0
225 -226 -243 0
226 -227 -241 0
227 -228 -239 0
228 -229 -237 0
229 -230 -235 0
230 -231 -233 0
231 -232 -38 0
231 232 38 0
233 -234 -38 0
233 234 38 0
235 -236 -38 0
235 236 38 0
237 -238 -38 0
237 238 38 0
239 -240 -38 0
239 240 38 0
24 -25 -8 0
24 25 8 0
241 -242 -38 0
241 242 38 0
243 -244 -38 0
243 244 38 0
245 -246 -38 0
245 246 38 0
247 -214 -8 0
247 214 8 0
248 -158 -210 0
248 -210 -217 0
248 158 -217 0
249 -250 -255 0
249 -6 -250 0
249 6 -255 0
250 -251 -174 0
251 -252 -174 0
252 -253 -174 0
253 -254 -38 0
253 254 38 0
255 -250 -256 0
255 -33 -250 0
255 33 -256 0
256 -250 -257 0
256 -46 -250 0
256 46 -257 0
257 -258 -260 0
257 -74 -258 0
257 74 -260 0
258 -254 -259 0
258 254 259 0
26 -27 -8 0
26 27 8 0
260 -258 -261 0
260 -79 -258 0
260 79 -261 0
261 -258 -262 0
261 -83 -258 0
261 83 -262 0
262 -155 -258 0
262 -258 -263 0
262 155 -263 0
263 -158 -258 0
263 -258 -264 0
263 158 -264 0
264 -161 -265 0
264 -265 -266 0
264 161 -266 0
265 -254 -8 0
265 254 8 0
266 -164 -250 0
266 -250 -267 0
266 164 -267 0
267 -167 -250 0
267 -250 -258 0
267 167 -258 0
28 -29 -8 0
28 29 8 0
3 -4 -183 0
30 -31 -8 0
30 31 8 0
32 -33 -9 0
32 -9 -45 0
32 33 -45 0
33 -34 -43 0
34 -35 -41 0
35 -36 -39 0
36 -37 -38 0
36 37 38 0
39 -40 -38 0
39 40 38 0
4 -5 -144 0
41 -42 -38 0
41 42 38 0
43 -44 -38 0
43 44 38 0
45 -46 -50 0
45 -50 -73 0
45 46 -73 0
46 -47 -43 0
47 -48 -41 0
48 -49 -39 0
49 -37 -8 0
49 37 8 0
5 -6 -9 0
5 -9 -32 0
5 6 -32 0
50 -51 -71 0
51 -52 -69 0
52 -53 -67 0
53 -54 -65 0
54 -55 -63 0
55 -56 -61 0
56 -57 -59 0
57 -17 -58 0
57 17 58 0
59 -19 -60 0
59 19 60 0
6 -7 -8 0
6 7 8 0
61 -21 -62 0
61 21 62 0
63 -23 -64 0
63 23 64 0
65 -25 -66 0
65 25 66 0
67 -27 -68 0
67 27 68 0
69 -29 -70 0
69 29 70 0
71 -31 -72 0
71 31 72 0
73 -50 -78 0
73 -74 -50 0
73 74 -78 0
74 -75 -43 0
75 -76 -41 0
76 -36 -77 0
77 -40 -8 0
77 40 8 0
78 -50 -82 0
78 -79 -50 0
78 79 -82 0
79 -80 -43 0
8 0
80 -81 -41 0
81 -49 -77 0
82 -83 -86 0
82 -86 -50 0
82 83 -50 0
83 -84 -43 0
84 -35 -85 0
85 -42 -8 0
85 42 8 0
86 -121 -50 0
86 -87 -121 0
86 87 -50 0
87 -88 -111 0
88 -89 -101 0
89 -90 -95 0
9 -10 -30 0
90 -91 -38 0
90 91 38 0
91 -38 92 0
91 -92 38 0
92 -93 94 0
92 -94 93 0
95 -96 -38 0
95 96 38 0
96 -100 97 0
96 -97 100 0
97 -98 99 0
97 -99 98 0
